40 22
13 266
20 849
2 160
21 40
20 317
15 711
18 272
18 595
13 1
19 826
18 241
10 777
13 182
10 928
1 786
14 501
12 866
11 53
10 143
20 953
13 530
3 205
16 19
15 279
10 55
1 494
4 343
12 357
7 475
5 864
2 420
19 459
1 766
10 858
13 83
4 62
18 217
4 919
19 887
6 555
